p cnf 101 741
-1 -2 0
-1 -3 0
-1 -4 0
-1 -5 0
-1 -6 0
-1 -7 0
-2 -3 0
-2 -4 0
-2 -5 0
-2 -6 0
-2 -7 0
-3 -4 0
-3 -5 0
-3 -6 0
-3 -7 0
-4 -5 0
-4 -6 0
-4 -7 0
-5 -6 0
-5 -7 0
-6 -7 0
1 2 3 4 5 6 7 0
-8 -9 0
-8 -10 0
-8 -11 0
-8 -12 0
-9 -10 0
-9 -11 0
-9 -12 0
-10 -11 0
-10 -12 0
-11 -12 0
8 9 10 11 12 0
-1 -13 0
-1 -14 0
-1 -15 0
-1 -16 0
-1 -17 0
-1 -18 0
-1 -19 0
-13 -14 0
-13 -15 0
-13 -16 0
-13 -17 0
-13 -18 0
-13 -19 0
-14 -15 0
-14 -16 0
-14 -17 0
-14 -18 0
-14 -19 0
-15 -16 0
-15 -17 0
-15 -18 0
-15 -19 0
-16 -17 0
-16 -18 0
-16 -19 0
-17 -18 0
-17 -19 0
-18 -19 0
1 13 14 15 16 17 18 19 0
-13 -20 0
-13 -21 0
-13 -22 0
-13 -23 0
-20 -21 0
-20 -22 0
-20 -23 0
-21 -22 0
-21 -23 0
-22 -23 0
13 20 21 22 23 0
-24 -25 0
-24 -26 0
-24 -27 0
-24 -28 0
-24 -29 0
-24 -30 0
-25 -26 0
-25 -27 0
-25 -28 0
-25 -29 0
-25 -30 0
-26 -27 0
-26 -28 0
-26 -29 0
-26 -30 0
-27 -28 0
-27 -29 0
-27 -30 0
-28 -29 0
-28 -30 0
-29 -30 0
24 25 26 27 28 29 30 0
-8 -14 0
-8 -20 0
-8 -24 0
-8 -31 0
-8 -32 0
-8 -33 0
-8 -34 0
-8 -35 0
-8 -36 0
-8 -37 0
-8 -38 0
-14 -20 0
-14 -24 0
-14 -31 0
-14 -32 0
-14 -33 0
-14 -34 0
-14 -35 0
-14 -36 0
-14 -37 0
-14 -38 0
-20 -24 0
-20 -31 0
-20 -32 0
-20 -33 0
-20 -34 0
-20 -35 0
-20 -36 0
-20 -37 0
-20 -38 0
-24 -31 0
-24 -32 0
-24 -33 0
-24 -34 0
-24 -35 0
-24 -36 0
-24 -37 0
-24 -38 0
-31 -32 0
-31 -33 0
-31 -34 0
-31 -35 0
-31 -36 0
-31 -37 0
-31 -38 0
-32 -33 0
-32 -34 0
-32 -35 0
-32 -36 0
-32 -37 0
-32 -38 0
-33 -34 0
-33 -35 0
-33 -36 0
-33 -37 0
-33 -38 0
-34 -35 0
-34 -36 0
-34 -37 0
-34 -38 0
-35 -36 0
-35 -37 0
-35 -38 0
-36 -37 0
-36 -38 0
-37 -38 0
8 14 20 24 31 32 33 34 35 36 37 38 0
-39 -40 0
-39 -41 0
-39 -42 0
-40 -41 0
-40 -42 0
-41 -42 0
39 40 41 42 0
-43 -44 0
-43 -45 0
-44 -45 0
43 44 45 0
-25 -43 0
-25 -46 0
-25 -47 0
-25 -48 0
-25 -49 0
-25 -50 0
-25 -51 0
-43 -46 0
-43 -47 0
-43 -48 0
-43 -49 0
-43 -50 0
-43 -51 0
-46 -47 0
-46 -48 0
-46 -49 0
-46 -50 0
-46 -51 0
-47 -48 0
-47 -49 0
-47 -50 0
-47 -51 0
-48 -49 0
-48 -50 0
-48 -51 0
-49 -50 0
-49 -51 0
-50 -51 0
25 43 46 47 48 49 50 51 0
-2 -26 0
-2 -39 0
-2 -52 0
-2 -53 0
-2 -54 0
-2 -55 0
-2 -56 0
-2 -57 0
-2 -58 0
-2 -59 0
-2 -60 0
-2 -61 0
-26 -39 0
-26 -52 0
-26 -53 0
-26 -54 0
-26 -55 0
-26 -56 0
-26 -57 0
-26 -58 0
-26 -59 0
-26 -60 0
-26 -61 0
-39 -52 0
-39 -53 0
-39 -54 0
-39 -55 0
-39 -56 0
-39 -57 0
-39 -58 0
-39 -59 0
-39 -60 0
-39 -61 0
-52 -53 0
-52 -54 0
-52 -55 0
-52 -56 0
-52 -57 0
-52 -58 0
-52 -59 0
-52 -60 0
-52 -61 0
-53 -54 0
-53 -55 0
-53 -56 0
-53 -57 0
-53 -58 0
-53 -59 0
-53 -60 0
-53 -61 0
-54 -55 0
-54 -56 0
-54 -57 0
-54 -58 0
-54 -59 0
-54 -60 0
-54 -61 0
-55 -56 0
-55 -57 0
-55 -58 0
-55 -59 0
-55 -60 0
-55 -61 0
-56 -57 0
-56 -58 0
-56 -59 0
-56 -60 0
-56 -61 0
-57 -58 0
-57 -59 0
-57 -60 0
-57 -61 0
-58 -59 0
-58 -60 0
-58 -61 0
-59 -60 0
-59 -61 0
-60 -61 0
2 26 39 52 53 54 55 56 57 58 59 60 61 0
-3 -15 0
-3 -31 0
-3 -44 0
-3 -46 0
-3 -62 0
-3 -63 0
-3 -64 0
-3 -65 0
-3 -66 0
-15 -31 0
-15 -44 0
-15 -46 0
-15 -62 0
-15 -63 0
-15 -64 0
-15 -65 0
-15 -66 0
-31 -44 0
-31 -46 0
-31 -62 0
-31 -63 0
-31 -64 0
-31 -65 0
-31 -66 0
-44 -46 0
-44 -62 0
-44 -63 0
-44 -64 0
-44 -65 0
-44 -66 0
-46 -62 0
-46 -63 0
-46 -64 0
-46 -65 0
-46 -66 0
-62 -63 0
-62 -64 0
-62 -65 0
-62 -66 0
-63 -64 0
-63 -65 0
-63 -66 0
-64 -65 0
-64 -66 0
-65 -66 0
3 15 31 44 46 62 63 64 65 66 0
-4 -32 0
-4 -67 0
-4 -68 0
-4 -69 0
-4 -70 0
-32 -67 0
-32 -68 0
-32 -69 0
-32 -70 0
-67 -68 0
-67 -69 0
-67 -70 0
-68 -69 0
-68 -70 0
-69 -70 0
4 32 67 68 69 70 0
-5 -9 0
-5 -27 0
-5 -40 0
-5 -47 0
-5 -52 0
-5 -71 0
-5 -72 0
-5 -73 0
-9 -27 0
-9 -40 0
-9 -47 0
-9 -52 0
-9 -71 0
-9 -72 0
-9 -73 0
-27 -40 0
-27 -47 0
-27 -52 0
-27 -71 0
-27 -72 0
-27 -73 0
-40 -47 0
-40 -52 0
-40 -71 0
-40 -72 0
-40 -73 0
-47 -52 0
-47 -71 0
-47 -72 0
-47 -73 0
-52 -71 0
-52 -72 0
-52 -73 0
-71 -72 0
-71 -73 0
-72 -73 0
5 9 27 40 47 52 71 72 73 0
-28 -67 0
-28 -71 0
-28 -74 0
-28 -75 0
-67 -71 0
-67 -74 0
-67 -75 0
-71 -74 0
-71 -75 0
-74 -75 0
28 67 71 74 75 0
-48 -74 0
-48 -76 0
-48 -77 0
-48 -78 0
-74 -76 0
-74 -77 0
-74 -78 0
-76 -77 0
-76 -78 0
-77 -78 0
48 74 76 77 78 0
-33 -53 0
-33 -62 0
-33 -79 0
-33 -80 0
-53 -62 0
-53 -79 0
-53 -80 0
-62 -79 0
-62 -80 0
-79 -80 0
33 53 62 79 80 0
-34 -54 0
-34 -63 0
-34 -81 0
-34 -82 0
-34 -83 0
-34 -84 0
-34 -85 0
-54 -63 0
-54 -81 0
-54 -82 0
-54 -83 0
-54 -84 0
-54 -85 0
-63 -81 0
-63 -82 0
-63 -83 0
-63 -84 0
-63 -85 0
-81 -82 0
-81 -83 0
-81 -84 0
-81 -85 0
-82 -83 0
-82 -84 0
-82 -85 0
-83 -84 0
-83 -85 0
-84 -85 0
34 54 63 81 82 83 84 85 0
-6 -21 0
-6 -55 0
-6 -64 0
-6 -76 0
-6 -86 0
-21 -55 0
-21 -64 0
-21 -76 0
-21 -86 0
-55 -64 0
-55 -76 0
-55 -86 0
-64 -76 0
-64 -86 0
-76 -86 0
6 21 55 64 76 86 0
-16 -35 0
-16 -81 0
-16 -87 0
-16 -88 0
-16 -89 0
-35 -81 0
-35 -87 0
-35 -88 0
-35 -89 0
-81 -87 0
-81 -88 0
-81 -89 0
-87 -88 0
-87 -89 0
-88 -89 0
16 35 81 87 88 89 0
-10 -36 0
-10 -49 0
-10 -72 0
-10 -75 0
-10 -82 0
-10 -87 0
-10 -90 0
-10 -91 0
-36 -49 0
-36 -72 0
-36 -75 0
-36 -82 0
-36 -87 0
-36 -90 0
-36 -91 0
-49 -72 0
-49 -75 0
-49 -82 0
-49 -87 0
-49 -90 0
-49 -91 0
-72 -75 0
-72 -82 0
-72 -87 0
-72 -90 0
-72 -91 0
-75 -82 0
-75 -87 0
-75 -90 0
-75 -91 0
-82 -87 0
-82 -90 0
-82 -91 0
-87 -90 0
-87 -91 0
-90 -91 0
10 36 49 72 75 82 87 90 91 0
-11 -17 0
-11 -22 0
-11 -37 0
-11 -56 0
-11 -90 0
-11 -92 0
-11 -93 0
-11 -94 0
-17 -22 0
-17 -37 0
-17 -56 0
-17 -90 0
-17 -92 0
-17 -93 0
-17 -94 0
-22 -37 0
-22 -56 0
-22 -90 0
-22 -92 0
-22 -93 0
-22 -94 0
-37 -56 0
-37 -90 0
-37 -92 0
-37 -93 0
-37 -94 0
-56 -90 0
-56 -92 0
-56 -93 0
-56 -94 0
-90 -92 0
-90 -93 0
-90 -94 0
-92 -93 0
-92 -94 0
-93 -94 0
11 17 22 37 56 90 92 93 94 0
-23 -38 0
-23 -41 0
-23 -45 0
-23 -57 0
-23 -65 0
-23 -68 0
-23 -95 0
-23 -96 0
-23 -97 0
-23 -98 0
-38 -41 0
-38 -45 0
-38 -57 0
-38 -65 0
-38 -68 0
-38 -95 0
-38 -96 0
-38 -97 0
-38 -98 0
-41 -45 0
-41 -57 0
-41 -65 0
-41 -68 0
-41 -95 0
-41 -96 0
-41 -97 0
-41 -98 0
-45 -57 0
-45 -65 0
-45 -68 0
-45 -95 0
-45 -96 0
-45 -97 0
-45 -98 0
-57 -65 0
-57 -68 0
-57 -95 0
-57 -96 0
-57 -97 0
-57 -98 0
-65 -68 0
-65 -95 0
-65 -96 0
-65 -97 0
-65 -98 0
-68 -95 0
-68 -96 0
-68 -97 0
-68 -98 0
-95 -96 0
-95 -97 0
-95 -98 0
-96 -97 0
-96 -98 0
-97 -98 0
23 38 41 45 57 65 68 95 96 97 98 0
-29 -42 0
-29 -73 0
-29 -83 0
-29 -88 0
-29 -99 0
-42 -73 0
-42 -83 0
-42 -88 0
-42 -99 0
-73 -83 0
-73 -88 0
-73 -99 0
-83 -88 0
-83 -99 0
-88 -99 0
29 42 73 83 88 99 0
-7 -12 0
-7 -58 0
-7 -69 0
-7 -86 0
-7 -89 0
-7 -92 0
-7 -95 0
-7 -100 0
-12 -58 0
-12 -69 0
-12 -86 0
-12 -89 0
-12 -92 0
-12 -95 0
-12 -100 0
-58 -69 0
-58 -86 0
-58 -89 0
-58 -92 0
-58 -95 0
-58 -100 0
-69 -86 0
-69 -89 0
-69 -92 0
-69 -95 0
-69 -100 0
-86 -89 0
-86 -92 0
-86 -95 0
-86 -100 0
-89 -92 0
-89 -95 0
-89 -100 0
-92 -95 0
-92 -100 0
-95 -100 0
7 12 58 69 86 89 92 95 100 0
-18 -50 0
-18 -59 0
-18 -66 0
-18 -79 0
-18 -84 0
-18 -91 0
-18 -93 0
-18 -96 0
-18 -101 0
-50 -59 0
-50 -66 0
-50 -79 0
-50 -84 0
-50 -91 0
-50 -93 0
-50 -96 0
-50 -101 0
-59 -66 0
-59 -79 0
-59 -84 0
-59 -91 0
-59 -93 0
-59 -96 0
-59 -101 0
-66 -79 0
-66 -84 0
-66 -91 0
-66 -93 0
-66 -96 0
-66 -101 0
-79 -84 0
-79 -91 0
-79 -93 0
-79 -96 0
-79 -101 0
-84 -91 0
-84 -93 0
-84 -96 0
-84 -101 0
-91 -93 0
-91 -96 0
-91 -101 0
-93 -96 0
-93 -101 0
-96 -101 0
18 50 59 66 79 84 91 93 96 101 0
-19 -60 0
-19 -85 0
-19 -97 0
-19 -100 0
-60 -85 0
-60 -97 0
-60 -100 0
-85 -97 0
-85 -100 0
-97 -100 0
19 60 85 97 100 0
-51 -61 0
-51 -70 0
-51 -77 0
-51 -80 0
-51 -99 0
-61 -70 0
-61 -77 0
-61 -80 0
-61 -99 0
-70 -77 0
-70 -80 0
-70 -99 0
-77 -80 0
-77 -99 0
-80 -99 0
51 61 70 77 80 99 0
-30 -78 0
-30 -94 0
-30 -98 0
-30 -101 0
-78 -94 0
-78 -98 0
-78 -101 0
-94 -98 0
-94 -101 0
-98 -101 0
30 78 94 98 101 0
